
Gurobi 10.0.1 (win64) logging started Sat Sep 16 16:57:24 2023

Set parameter LogFile to value "./results-heuristic-start//log/Fattahi_setup_12_modified_old_deadline.log"
Gurobi Optimizer version 10.0.1 build v10.0.1rc0 (win64)

CPU model: AMD Ryzen 7 3700X 8-Core Processor, instruction set [SSE2|AVX|AVX2]
Thread count: 8 physical cores, 16 logical processors, using up to 16 threads

Optimize a model with 347 rows, 317 columns and 1367 nonzeros
Model fingerprint: 0x008722e9
Model has 1 quadratic constraint
Variable types: 39 continuous, 278 integer (277 binary)
Coefficient statistics:
  Matrix range     [1e+00, 1e+06]
  QMatrix range    [1e+00, 1e+00]
  QLMatrix range   [1e+00, 4e+02]
  Objective range  [1e+00, 1e+00]
  Bounds range     [1e+00, 1e+00]
  RHS range        [1e+00, 3e+06]

Warning: Completing partial solution with 263 unfixed non-continuous variables out of 278
User MIP start did not produce a new incumbent solution
User MIP start violates constraint initial_start_time_job0_stage0_machine2_constraint by 420.000000000

Presolve removed 45 rows and 158 columns
Presolve time: 0.00s
Presolved: 316 rows, 172 columns, 1372 nonzeros
Variable types: 52 continuous, 120 integer (119 binary)
Found heuristic solution: objective 10170.000000
Found heuristic solution: objective 5197.0000000

Root relaxation: objective 0.000000e+00, 47 iterations, 0.00 seconds (0.00 work units)

    Nodes    |    Current Node    |     Objective Bounds      |     Work
 Expl Unexpl |  Obj  Depth IntInf | Incumbent    BestBd   Gap | It/Node Time

     0     0    0.00000    0    8 5197.00000    0.00000   100%     -    0s
Another try with MIP start
H    0     0                    4004.0000000    0.00000   100%     -    0s
H    0     0                    3921.0000000    0.00000   100%     -    0s
     0     0    0.00000    0   12 3921.00000    0.00000   100%     -    0s
H    0     0                    3920.0000000    0.00000   100%     -    0s
     0     0    0.00000    0   14 3920.00000    0.00000   100%     -    0s
H    0     0                    3848.0000000    0.00000   100%     -    0s
H    0     0                    3672.0000000    0.00000   100%     -    0s
     0     0    0.00000    0   13 3672.00000    0.00000   100%     -    0s
     0     0    0.00000    0   17 3672.00000    0.00000   100%     -    0s
H    0     0                    3540.0000000    0.00000   100%     -    0s
     0     0    0.00000    0    8 3540.00000    0.00000   100%     -    0s
     0     0  336.16046    0   24 3540.00000  336.16046  90.5%     -    0s
     0     0 1428.84715    0   24 3540.00000 1428.84715  59.6%     -    0s
     0     0 1433.07346    0   26 3540.00000 1433.07346  59.5%     -    0s
     0     0 1614.75543    0   28 3540.00000 1614.75543  54.4%     -    0s
H    0     0                    3487.0000000 1616.18845  53.7%     -    0s
     0     0 1616.18845    0   29 3487.00000 1616.18845  53.7%     -    0s
     0     0 1618.67520    0   28 3487.00000 1618.67520  53.6%     -    0s
H    0     0                    3485.0000000 1618.67520  53.6%     -    0s
     0     0 1618.67520    0   26 3485.00000 1618.67520  53.6%     -    0s
H    0     0                    3484.0000000 1618.67520  53.5%     -    0s
H    0     0                    3482.0000000 1618.67520  53.5%     -    0s
H    0     0                    3273.0000000 1618.67520  50.5%     -    0s
     0     2 1618.67520    0   22 3273.00000 1618.67520  50.5%     -    0s
H  380   216                    3272.0000000 1652.43961  49.5%   5.8    0s
H  410   216                    2994.0000000 1657.52783  44.6%   5.7    0s
H 1556   551                    2993.0000000 1734.09067  42.1%   4.8    0s
* 2120   809              30    2961.0000000 1800.33792  39.2%   4.7    0s
* 4259  1075              44    2948.0000000 1826.02906  38.1%   4.2    1s
*14291  1173              45    2943.0000000 2533.00000  13.9%   8.2    2s
*16354   967              42    2932.0000000 2638.35492  10.0%   8.4    2s
*18585   489              42    2908.0000000 2758.85344  5.13%   8.6    2s

Cutting planes:
  Learned: 88
  Gomory: 60
  Cover: 9
  Implied bound: 15
  Projected implied bound: 2
  Clique: 1
  MIR: 528
  StrongCG: 2
  Flow cover: 704
  Inf proof: 13
  RLT: 1
  Relax-and-lift: 3

Explored 19818 nodes (186643 simplex iterations) in 2.73 seconds (2.02 work units)
Thread count was 16 (of 16 available processors)

Solution count 10: 2908 2908 2932 ... 3273

Optimal solution found (tolerance 1.00e-04)
Best objective 2.908000000000e+03, best bound 2.908000000000e+03, gap 0.0000%
Warning: constraint name "precedence between 0,1 to 0,0 if x_[j,l,h,z,i]=1" has a space
Warning: constraint name "precedence between 0,1 to 0,0 if x_[j,l,h,z,i]=1" has a space
Warning: default constraint names used to write mps file
